%nprocshared=1
%mem=4000MB
%chk=CC_H8C3_d91b46644317dee9c2b868166c66a18c~1.chk
#Opt=Modredundant PBEPBE EmpiricalDispersion=GD3BJ 6-31+G(D) pop=(CM5, ESP)

CC_H8C3_d91b46644317dee9c2b868166c66a18c~1

0 1
  C    -1.277611    -0.259902     0.000063
  C     0.000008     0.587261     0.000061
  H    -2.184347     0.369493     0.000197
  H    -1.322546    -0.912754    -0.890295
  H    -1.322414    -0.912935     0.890295
  C     1.277597    -0.259903    -0.000118
  H    -0.000061     1.253929    -0.883200
  H     0.000059     1.253732     0.883470
  H     2.184357     0.369473    -0.000170
  H     1.322580    -0.912892     0.890136
  H     1.322407    -0.912781    -0.890463

D 3 1 2 6 S 23 15.00

