%nprocshared=1
%mem=4GB
%chk=benzene_hessian.chk
#freq opt PBEPBE 6-31+G(D) EmpiricalDispersion=GD3BJ pop=(CM5, ESP, NBOREAD) 

benzene_hessian

0 1
  H     5.220000     6.860000     4.480000
  C     4.900000     5.820000     4.490000
  C     5.850000     4.800000     4.490000
  H     6.910000     5.040000     4.480000
  C     3.530000     5.510000     4.490000
  H     2.790000     6.310000     4.480000
  C     3.120000     4.170000     4.480000
  H     2.060000     3.930000     4.490000
  C     4.070000     3.150000     4.480000
  H     3.760000     2.110000     4.490000
  C     5.440000     3.460000     4.480000
  H     6.180000     2.670000     4.490000

$nbo BNDIDX $end

